GeneratedTests/Random_11/Random_11_5.tsp
NAME: Random_11_5
TYPE: TSP
DIMENSION: 11
EDGE_WEIGHT_TYPE: EUC_2D
NODE_COORD_SECTION
1 10.872702 22.418108
2 8.565353 22.021719
3 30.32127 6.1417704
4 8.462381 5.8770084
5 22.134262 19.788881
6 27.206583 29.678526
7 0.098107696 29.050169
8 4.6226707 3.1269345
9 9.136667 1.8584502
10 15.149661 17.429335
11 17.116241 15.681635
EOF
