GeneratedTests/Random_11/Random_11_5.txt
NAME: Random_11_5
TYPE: TSP
DIMENSION: 11
EDGE_WEIGHT_TYPE: EUC_2D
NODE_COORD_SECTION
1 28.105768 19.327902
2 17.39044 22.166979
3 26.956638 26.652603
4 30.188887 11.867048
5 18.282352 32.555805
6 17.049826 5.5733247
7 18.143951 8.059577
8 28.650475 24.157982
9 32.41991 18.381413
10 1.9702971 6.8666396
11 14.4559555 29.941896
EOF
